Route #1: 1 26 16 8 30 38 43 46 7 1
Route #2: 1 17 53 2 28 36 49 37 50 4 1
Route #3: 1 42 25 54 48 40 5 27 14 1
Route #4: 1 33 34 3 31 35 55 56 21 32 12 19 11 1
Route #5: 1 22 9 29 18 15 45 52 41 1
Route #6: 1 39 51 23 24 13 10 6 44 20 1
Route #7: 1 47 1
cost 934
